4 5
97 68 60 91 
0 27 23 38 41 70 60 68 78 53 75 35 90 75 28 97 78 98 42 78 7 1
1 82 79 21 14 55 56 94 91 96 25 72 50 93 65 83 74 22 21 28 51 1
2 98 97 75 68 29 38 22 17 25 74 69 14 21 50 54 98 48 86 93 71 1
3 23 14 53 61 18 15 69 62 86 88 1 100 55 16 74 35 35 35 93 26 3
4 1 3 64 54 10 4 64 55 3 46 16 9 74 72 27 37 32 2 1 99 3
